Name:		mgval_0.45_1B
Optimal value:	166
#Vehicles:	3
Capacity:	120
Depot Node:	1
#Nodes:		24
#Edges:		13
#Arcs:		38
#Required N:	14
#Required E:	7
#Required A:	20

ReN.	DEMAND	S. COST
N2	7	7
N3	3	3
N4	3	3
N5	4	4
N6	30	30
N8	4	4
N9	13	13
N10	4	4
N12	15	15
N13	13	13
N16	5	5
N17	4	4
N19	20	20
N20	17	17

ReE.	FROM N.	TO N.	T. COST	DEMAND	S. COST
E7	5	11	4	9	9
E8	21	24	4	13	13
E9	3	4	5	14	14
E10	20	21	3	12	12
E11	7	8	4	12	12
E12	11	12	2	5	5
E13	1	11	7	12	12

EDGE	FROM N.	TO N.	T. COST
NrE1	2	10	2
NrE2	1	20	5
NrE3	4	5	4
NrE4	6	7	3
NrE5	19	22	5
NrE6	13	17	2

ReA.	FROM N.	TO N.	T. COST	DEMAND	S. COST
A19	19	9	5	14	14
A20	23	22	2	5	5
A21	2	5	3	6	6
A22	21	15	6	7	7
A23	21	23	5	6	6
A24	6	5	10	19	19
A25	20	19	5	7	7
A26	15	21	6	7	7
A27	16	15	2	4	4
A28	15	20	3	4	4
A29	17	16	1	2	2
A30	22	23	2	4	4
A31	17	12	4	7	7
A32	14	8	4	5	5
A33	19	1	4	13	13
A34	5	2	3	6	6
A35	23	21	5	6	6
A36	14	13	5	5	5
A37	23	24	2	4	4
A38	18	14	3	8	8

ARC	FROM N.	TO N.	T. COST
NrA1	9	1	3
NrA2	8	14	4
NrA3	13	7	4
NrA4	1	5	3
NrA5	12	16	3
NrA6	16	17	1
NrA7	5	1	3
NrA8	3	10	3
NrA9	6	11	7
NrA10	17	18	2
NrA11	10	3	3
NrA12	20	15	3
NrA13	2	4	1
NrA14	12	6	4
NrA15	16	12	3
NrA16	19	20	5
NrA17	9	3	2
NrA18	13	14	5
